1 1834 10
2 1514 10
3 1442 9
6 1428 9
7 1405 9
12 1383 9
21 1328 9
32 1309 9
177 1289 9
528 1272 9
889 1271 9



1 1873 10
2 1501 9
4 1410 9
5 1399 9
7 1344 9
51 1302 9
295 1275 9



1 1833 10
2 1512 9
3 1473 10
4 1442 9
5 1404 9
12 1388 9
16 1382 9
27 1372 9
36 1368 9
46 1338 9
61 1323 9
127 1308 9
187 1287 9



1 1800 9
2 1507 9
3 1417 9
11 1413 9
12 1397 9
14 1290 9
523 1288 9
580 1281 9



1 1902 10
2 1541 9
3 1443 9
4 1369 9
10 1358 9
16 1338 9
72 1325 9
126 1321 9
171 1289 9
761 1274 9
896 1254 9



